p cnf 10 50
-2 -6 -7 0
-7 3 -5 0
5 -2 7 0
9 2 3 0
-10 6 8 0
8 -2 -7 0
-4 -6 -7 0
-9 -4 10 0
-2 -5 7 0
2 10 -3 0
7 1 -6 0
7 -9 4 0
-7 -10 -6 0
-7 5 3 0
8 10 2 0
-1 6 -9 0
-7 -2 5 0
7 -3 4 0
6 3 2 0
7 -2 8 0
-1 6 -8 0
-6 -4 7 0
-3 -10 5 0
-10 1 -7 0
-5 10 6 0
-1 10 7 0
5 10 8 0
3 10 -8 0
-3 2 -5 0
10 -8 9 0
10 9 8 0
7 -4 6 0
9 7 1 0
7 -3 10 0
-1 -7 8 0
-4 10 8 0
2 5 6 0
-9 10 3 0
10 5 -6 0
7 9 2 0
9 -1 2 0
5 -7 3 0
6 -8 5 0
8 6 -9 0
6 9 -10 0
-7 -9 4 0
-8 5 7 0
1 -2 -10 0
-9 -6 -2 0
5 1 2 0